p edge 3257 3202
e 1 2
e 1 3
e 1 4
e 1 5
e 1 6
e 1 7
e 1 8
e 1 9
e 1 10
e 1 11
e 1 12
e 1 13
e 1 14
e 1 15
e 1 16
e 1 17
e 1 18
e 1 19
e 1 20
e 1 21
e 1 22
e 1 23
e 1 24
e 1 25
e 1 26
e 1 27
e 1 28
e 1 29
e 1 30
e 1 31
e 1 32
e 1 33
e 1 34
e 1 35
e 1 36
e 1 37
e 1 38
e 39 40
e 39 41
e 39 42
e 39 43
e 39 44
e 39 45
e 39 46
e 39 47
e 39 48
e 39 49
e 39 50
e 39 51
e 39 52
e 39 53
e 39 54
e 39 55
e 39 56
e 39 57
e 39 58
e 39 59
e 39 60
e 39 61
e 39 62
e 39 63
e 39 64
e 39 65
e 39 66
e 39 67
e 39 68
e 39 69
e 39 70
e 39 71
e 39 72
e 39 73
e 39 74
e 39 75
e 39 76
e 39 77
e 39 78
e 39 79
e 39 80
e 39 81
e 39 82
e 39 83
e 39 84
e 39 85
e 39 86
e 39 87
e 39 88
e 39 89
e 39 90
e 39 91
e 39 92
e 39 93
e 39 94
e 39 95
e 39 96
e 39 97
e 39 98
e 39 99
e 39 100
e 39 101
e 39 102
e 39 103
e 39 104
e 39 105
e 39 106
e 39 107
e 39 108
e 39 109
e 39 110
e 39 111
e 39 112
e 39 113
e 39 114
e 39 115
e 39 116
e 39 117
e 39 118
e 39 119
e 39 120
e 39 121
e 39 122
e 39 123
e 39 124
e 39 125
e 39 126
e 39 127
e 39 128
e 39 129
e 39 130
e 39 131
e 39 132
e 39 133
e 39 134
e 39 135
e 39 136
e 39 137
e 138 139
e 138 140
e 138 141
e 138 142
e 138 143
e 138 144
e 138 145
e 138 146
e 138 147
e 138 148
e 149 150
e 149 151
e 149 152
e 149 153
e 149 154
e 149 155
e 149 156
e 149 157
e 149 158
e 149 159
e 149 160
e 149 161
e 149 162
e 149 163
e 149 164
e 149 165
e 149 166
e 149 167
e 149 168
e 149 169
e 149 170
e 149 171
e 149 172
e 149 173
e 149 174
e 149 175
e 149 176
e 149 177
e 149 178
e 149 179
e 149 180
e 149 181
e 149 182
e 149 183
e 149 184
e 149 185
e 149 186
e 149 187
e 149 188
e 149 189
e 190 191
e 190 192
e 190 193
e 190 194
e 190 195
e 190 196
e 190 197
e 190 198
e 190 199
e 190 200
e 190 201
e 190 202
e 190 203
e 190 204
e 190 205
e 190 206
e 190 207
e 190 208
e 190 209
e 190 210
e 190 211
e 190 212
e 190 213
e 190 214
e 190 215
e 190 216
e 190 217
e 190 218
e 190 219
e 190 220
e 190 221
e 190 222
e 190 223
e 190 224
e 190 225
e 190 226
e 190 227
e 190 228
e 190 229
e 190 230
e 190 231
e 190 232
e 190 233
e 190 234
e 190 235
e 190 236
e 190 237
e 190 238
e 190 239
e 190 240
e 190 241
e 190 242
e 190 243
e 190 244
e 190 245
e 190 246
e 190 247
e 190 248
e 190 249
e 190 250
e 190 251
e 190 252
e 190 253
e 190 254
e 190 255
e 190 256
e 190 257
e 190 258
e 190 259
e 190 260
e 190 261
e 190 262
e 190 263
e 190 264
e 190 265
e 190 266
e 190 267
e 190 268
e 190 269
e 190 270
e 190 271
e 190 272
e 190 273
e 190 274
e 190 275
e 190 276
e 190 277
e 190 278
e 190 279
e 190 280
e 190 281
e 190 282
e 190 283
e 190 284
e 190 285
e 190 286
e 287 288
e 287 289
e 287 290
e 287 291
e 287 292
e 287 293
e 287 294
e 287 295
e 287 296
e 287 297
e 287 298
e 287 299
e 287 300
e 287 301
e 287 302
e 287 303
e 287 304
e 287 305
e 287 306
e 287 307
e 287 308
e 287 309
e 287 310
e 287 311
e 287 312
e 287 313
e 287 314
e 287 315
e 287 316
e 287 317
e 287 318
e 287 319
e 287 320
e 287 321
e 287 322
e 287 323
e 287 324
e 287 325
e 287 326
e 287 327
e 287 328
e 287 329
e 287 330
e 287 331
e 287 332
e 287 333
e 287 334
e 287 335
e 287 336
e 287 337
e 287 338
e 287 339
e 287 340
e 287 341
e 287 342
e 287 343
e 287 344
e 287 345
e 287 346
e 287 347
e 287 348
e 287 349
e 287 350
e 287 351
e 287 352
e 287 353
e 287 354
e 287 355
e 287 356
e 287 357
e 287 358
e 287 359
e 287 360
e 287 361
e 287 362
e 287 363
e 287 364
e 287 365
e 287 366
e 287 367
e 287 368
e 287 369
e 287 370
e 287 371
e 287 372
e 287 373
e 287 374
e 287 375
e 287 376
e 287 377
e 378 379
e 378 380
e 378 381
e 378 382
e 378 383
e 378 384
e 378 385
e 378 386
e 378 387
e 378 388
e 378 389
e 378 390
e 378 391
e 378 392
e 378 393
e 378 394
e 378 395
e 378 396
e 378 397
e 378 398
e 378 399
e 378 400
e 378 401
e 378 402
e 378 403
e 378 404
e 378 405
e 378 406
e 378 407
e 378 408
e 378 409
e 378 410
e 378 411
e 378 412
e 378 413
e 378 414
e 378 415
e 378 416
e 378 417
e 378 418
e 378 419
e 378 420
e 378 421
e 378 422
e 378 423
e 378 424
e 378 425
e 378 426
e 378 427
e 378 428
e 378 429
e 378 430
e 378 431
e 378 432
e 378 433
e 378 434
e 378 435
e 378 436
e 378 437
e 378 438
e 378 439
e 378 440
e 441 442
e 441 443
e 441 444
e 441 445
e 441 446
e 441 447
e 441 448
e 441 449
e 441 450
e 441 451
e 441 452
e 441 453
e 441 454
e 441 455
e 441 456
e 441 457
e 441 458
e 441 459
e 441 460
e 441 461
e 441 462
e 441 463
e 441 464
e 441 465
e 441 466
e 441 467
e 468 469
e 468 470
e 468 471
e 468 472
e 468 473
e 468 474
e 468 475
e 468 476
e 468 477
e 468 478
e 468 479
e 468 480
e 468 481
e 468 482
e 468 483
e 468 484
e 468 485
e 468 486
e 468 487
e 468 488
e 468 489
e 468 490
e 468 491
e 468 492
e 468 493
e 468 494
e 468 495
e 468 496
e 468 497
e 468 498
e 468 499
e 468 500
e 468 501
e 468 502
e 468 503
e 468 504
e 468 505
e 468 506
e 468 507
e 468 508
e 468 509
e 468 510
e 468 511
e 468 512
e 468 513
e 468 514
e 468 515
e 468 516
e 468 517
e 468 518
e 468 519
e 468 520
e 468 521
e 468 522
e 468 523
e 468 524
e 468 525
e 468 526
e 468 527
e 468 528
e 468 529
e 468 530
e 468 531
e 468 532
e 468 533
e 468 534
e 468 535
e 468 536
e 468 537
e 468 538
e 468 539
e 468 540
e 468 541
e 468 542
e 468 543
e 468 544
e 468 545
e 468 546
e 468 547
e 468 548
e 468 549
e 468 550
e 468 551
e 468 552
e 468 553
e 468 554
e 468 555
e 468 556
e 468 557
e 468 558
e 468 559
e 468 560
e 468 561
e 468 562
e 468 563
e 468 564
e 468 565
e 468 566
e 567 568
e 567 569
e 567 570
e 567 571
e 567 572
e 567 573
e 567 574
e 567 575
e 567 576
e 567 577
e 567 578
e 567 579
e 567 580
e 567 581
e 567 582
e 567 583
e 567 584
e 567 585
e 567 586
e 567 587
e 567 588
e 567 589
e 567 590
e 567 591
e 567 592
e 567 593
e 567 594
e 567 595
e 567 596
e 567 597
e 567 598
e 567 599
e 567 600
e 567 601
e 567 602
e 567 603
e 567 604
e 567 605
e 567 606
e 567 607
e 567 608
e 567 609
e 567 610
e 567 611
e 567 612
e 567 613
e 567 614
e 567 615
e 567 616
e 567 617
e 567 618
e 567 619
e 567 620
e 567 621
e 567 622
e 567 623
e 567 624
e 567 625
e 567 626
e 567 627
e 567 628
e 567 629
e 567 630
e 567 631
e 567 632
e 567 633
e 567 634
e 567 635
e 567 636
e 567 637
e 567 638
e 567 639
e 567 640
e 641 642
e 641 643
e 641 644
e 641 645
e 641 646
e 641 647
e 641 648
e 641 649
e 641 650
e 641 651
e 641 652
e 641 653
e 641 654
e 641 655
e 641 656
e 641 657
e 641 658
e 641 659
e 641 660
e 641 661
e 641 662
e 641 663
e 641 664
e 641 665
e 641 666
e 641 667
e 641 668
e 641 669
e 641 670
e 641 671
e 641 672
e 641 673
e 641 674
e 641 675
e 641 676
e 641 677
e 641 678
e 641 679
e 641 680
e 641 681
e 641 682
e 641 683
e 641 684
e 641 685
e 641 686
e 641 687
e 641 688
e 641 689
e 641 690
e 641 691
e 641 692
e 641 693
e 641 694
e 695 696
e 695 697
e 695 698
e 695 699
e 695 700
e 695 701
e 695 702
e 695 703
e 695 704
e 695 705
e 695 706
e 695 707
e 695 708
e 695 709
e 695 710
e 695 711
e 695 712
e 695 713
e 695 714
e 695 715
e 695 716
e 695 717
e 695 718
e 695 719
e 695 720
e 695 721
e 695 722
e 695 723
e 695 724
e 695 725
e 695 726
e 695 727
e 695 728
e 695 729
e 695 730
e 695 731
e 695 732
e 695 733
e 695 734
e 695 735
e 695 736
e 695 737
e 695 738
e 695 739
e 695 740
e 695 741
e 695 742
e 695 743
e 695 744
e 695 745
e 695 746
e 695 747
e 695 748
e 695 749
e 695 750
e 695 751
e 695 752
e 695 753
e 695 754
e 695 755
e 695 756
e 695 757
e 695 758
e 695 759
e 695 760
e 695 761
e 695 762
e 695 763
e 695 764
e 695 765
e 695 766
e 767 768
e 767 769
e 767 770
e 767 771
e 767 772
e 767 773
e 767 774
e 767 775
e 767 776
e 767 777
e 767 778
e 767 779
e 767 780
e 767 781
e 767 782
e 767 783
e 767 784
e 767 785
e 767 786
e 767 787
e 767 788
e 767 789
e 767 790
e 767 791
e 767 792
e 767 793
e 767 794
e 767 795
e 767 796
e 767 797
e 767 798
e 767 799
e 767 800
e 767 801
e 767 802
e 767 803
e 767 804
e 767 805
e 767 806
e 767 807
e 767 808
e 767 809
e 767 810
e 767 811
e 767 812
e 813 814
e 813 815
e 813 816
e 813 817
e 813 818
e 813 819
e 813 820
e 813 821
e 813 822
e 813 823
e 813 824
e 813 825
e 813 826
e 813 827
e 813 828
e 813 829
e 813 830
e 813 831
e 813 832
e 813 833
e 813 834
e 813 835
e 813 836
e 813 837
e 813 838
e 813 839
e 813 840
e 813 841
e 813 842
e 813 843
e 813 844
e 845 846
e 845 847
e 845 848
e 845 849
e 845 850
e 845 851
e 845 852
e 845 853
e 845 854
e 845 855
e 845 856
e 845 857
e 845 858
e 845 859
e 845 860
e 845 861
e 845 862
e 845 863
e 845 864
e 845 865
e 845 866
e 845 867
e 845 868
e 845 869
e 845 870
e 845 871
e 872 873
e 872 874
e 872 875
e 872 876
e 872 877
e 872 878
e 872 879
e 872 880
e 872 881
e 872 882
e 872 883
e 872 884
e 872 885
e 872 886
e 872 887
e 872 888
e 872 889
e 872 890
e 872 891
e 872 892
e 872 893
e 872 894
e 872 895
e 872 896
e 872 897
e 872 898
e 872 899
e 872 900
e 872 901
e 872 902
e 872 903
e 872 904
e 872 905
e 872 906
e 872 907
e 872 908
e 872 909
e 872 910
e 872 911
e 872 912
e 872 913
e 872 914
e 872 915
e 872 916
e 872 917
e 872 918
e 872 919
e 872 920
e 872 921
e 872 922
e 872 923
e 872 924
e 872 925
e 872 926
e 872 927
e 872 928
e 872 929
e 872 930
e 872 931
e 872 932
e 872 933
e 872 934
e 872 935
e 872 936
e 872 937
e 872 938
e 872 939
e 872 940
e 872 941
e 872 942
e 872 943
e 872 944
e 872 945
e 872 946
e 872 947
e 872 948
e 872 949
e 872 950
e 872 951
e 872 952
e 872 953
e 872 954
e 872 955
e 872 956
e 957 958
e 957 959
e 957 960
e 957 961
e 957 962
e 957 963
e 957 964
e 957 965
e 957 966
e 957 967
e 957 968
e 957 969
e 957 970
e 957 971
e 957 972
e 957 973
e 957 974
e 957 975
e 957 976
e 957 977
e 957 978
e 957 979
e 957 980
e 957 981
e 957 982
e 957 983
e 957 984
e 957 985
e 957 986
e 957 987
e 957 988
e 957 989
e 957 990
e 957 991
e 957 992
e 957 993
e 957 994
e 957 995
e 957 996
e 957 997
e 957 998
e 957 999
e 957 1000
e 957 1001
e 957 1002
e 957 1003
e 957 1004
e 957 1005
e 957 1006
e 957 1007
e 957 1008
e 957 1009
e 957 1010
e 957 1011
e 957 1012
e 957 1013
e 957 1014
e 957 1015
e 957 1016
e 957 1017
e 957 1018
e 957 1019
e 957 1020
e 957 1021
e 1022 1023
e 1022 1024
e 1022 1025
e 1022 1026
e 1022 1027
e 1022 1028
e 1022 1029
e 1022 1030
e 1022 1031
e 1022 1032
e 1022 1033
e 1022 1034
e 1022 1035
e 1022 1036
e 1022 1037
e 1022 1038
e 1022 1039
e 1022 1040
e 1022 1041
e 1022 1042
e 1022 1043
e 1022 1044
e 1022 1045
e 1022 1046
e 1022 1047
e 1022 1048
e 1022 1049
e 1022 1050
e 1022 1051
e 1022 1052
e 1022 1053
e 1022 1054
e 1022 1055
e 1022 1056
e 1022 1057
e 1022 1058
e 1022 1059
e 1022 1060
e 1022 1061
e 1022 1062
e 1022 1063
e 1022 1064
e 1022 1065
e 1022 1066
e 1022 1067
e 1022 1068
e 1022 1069
e 1022 1070
e 1022 1071
e 1022 1072
e 1022 1073
e 1022 1074
e 1022 1075
e 1022 1076
e 1022 1077
e 1022 1078
e 1022 1079
e 1022 1080
e 1022 1081
e 1022 1082
e 1022 1083
e 1022 1084
e 1022 1085
e 1022 1086
e 1022 1087
e 1022 1088
e 1022 1089
e 1022 1090
e 1022 1091
e 1022 1092
e 1022 1093
e 1022 1094
e 1022 1095
e 1022 1096
e 1022 1097
e 1022 1098
e 1022 1099
e 1022 1100
e 1022 1101
e 1022 1102
e 1022 1103
e 1022 1104
e 1022 1105
e 1022 1106
e 1022 1107
e 1022 1108
e 1022 1109
e 1022 1110
e 1022 1111
e 1022 1112
e 1022 1113
e 1022 1114
e 1022 1115
e 1022 1116
e 1022 1117
e 1022 1118
e 1022 1119
e 1022 1120
e 1121 1122
e 1121 1123
e 1121 1124
e 1121 1125
e 1121 1126
e 1121 1127
e 1121 1128
e 1121 1129
e 1121 1130
e 1121 1131
e 1121 1132
e 1121 1133
e 1121 1134
e 1121 1135
e 1121 1136
e 1121 1137
e 1121 1138
e 1121 1139
e 1121 1140
e 1121 1141
e 1121 1142
e 1121 1143
e 1121 1144
e 1121 1145
e 1121 1146
e 1121 1147
e 1121 1148
e 1121 1149
e 1121 1150
e 1121 1151
e 1121 1152
e 1121 1153
e 1121 1154
e 1121 1155
e 1121 1156
e 1121 1157
e 1121 1158
e 1121 1159
e 1121 1160
e 1121 1161
e 1121 1162
e 1121 1163
e 1121 1164
e 1121 1165
e 1121 1166
e 1121 1167
e 1121 1168
e 1121 1169
e 1121 1170
e 1121 1171
e 1121 1172
e 1121 1173
e 1121 1174
e 1121 1175
e 1121 1176
e 1121 1177
e 1121 1178
e 1121 1179
e 1121 1180
e 1121 1181
e 1121 1182
e 1121 1183
e 1121 1184
e 1121 1185
e 1121 1186
e 1121 1187
e 1121 1188
e 1121 1189
e 1121 1190
e 1121 1191
e 1121 1192
e 1121 1193
e 1121 1194
e 1121 1195
e 1121 1196
e 1121 1197
e 1121 1198
e 1199 1200
e 1199 1201
e 1199 1202
e 1199 1203
e 1199 1204
e 1199 1205
e 1199 1206
e 1199 1207
e 1199 1208
e 1199 1209
e 1199 1210
e 1199 1211
e 1199 1212
e 1199 1213
e 1199 1214
e 1199 1215
e 1199 1216
e 1199 1217
e 1199 1218
e 1199 1219
e 1199 1220
e 1199 1221
e 1199 1222
e 1199 1223
e 1199 1224
e 1199 1225
e 1199 1226
e 1199 1227
e 1199 1228
e 1199 1229
e 1199 1230
e 1199 1231
e 1199 1232
e 1199 1233
e 1199 1234
e 1199 1235
e 1199 1236
e 1199 1237
e 1199 1238
e 1199 1239
e 1199 1240
e 1199 1241
e 1199 1242
e 1243 1244
e 1243 1245
e 1243 1246
e 1243 1247
e 1243 1248
e 1243 1249
e 1243 1250
e 1243 1251
e 1243 1252
e 1243 1253
e 1254 1255
e 1254 1256
e 1254 1257
e 1254 1258
e 1254 1259
e 1254 1260
e 1254 1261
e 1254 1262
e 1254 1263
e 1254 1264
e 1254 1265
e 1254 1266
e 1254 1267
e 1254 1268
e 1254 1269
e 1254 1270
e 1254 1271
e 1254 1272
e 1254 1273
e 1254 1274
e 1254 1275
e 1254 1276
e 1254 1277
e 1254 1278
e 1254 1279
e 1254 1280
e 1254 1281
e 1254 1282
e 1254 1283
e 1254 1284
e 1254 1285
e 1254 1286
e 1254 1287
e 1254 1288
e 1254 1289
e 1254 1290
e 1254 1291
e 1292 1293
e 1292 1294
e 1292 1295
e 1292 1296
e 1292 1297
e 1292 1298
e 1292 1299
e 1292 1300
e 1292 1301
e 1292 1302
e 1292 1303
e 1292 1304
e 1292 1305
e 1292 1306
e 1292 1307
e 1292 1308
e 1292 1309
e 1292 1310
e 1311 1312
e 1311 1313
e 1311 1314
e 1311 1315
e 1311 1316
e 1311 1317
e 1311 1318
e 1311 1319
e 1311 1320
e 1311 1321
e 1311 1322
e 1311 1323
e 1311 1324
e 1311 1325
e 1311 1326
e 1311 1327
e 1311 1328
e 1311 1329
e 1311 1330
e 1311 1331
e 1311 1332
e 1311 1333
e 1311 1334
e 1311 1335
e 1311 1336
e 1311 1337
e 1311 1338
e 1311 1339
e 1311 1340
e 1311 1341
e 1311 1342
e 1311 1343
e 1311 1344
e 1311 1345
e 1311 1346
e 1311 1347
e 1311 1348
e 1311 1349
e 1311 1350
e 1311 1351
e 1311 1352
e 1311 1353
e 1311 1354
e 1311 1355
e 1311 1356
e 1311 1357
e 1311 1358
e 1311 1359
e 1311 1360
e 1311 1361
e 1311 1362
e 1311 1363
e 1311 1364
e 1311 1365
e 1311 1366
e 1311 1367
e 1311 1368
e 1311 1369
e 1311 1370
e 1311 1371
e 1311 1372
e 1311 1373
e 1311 1374
e 1311 1375
e 1311 1376
e 1311 1377
e 1311 1378
e 1311 1379
e 1311 1380
e 1311 1381
e 1311 1382
e 1311 1383
e 1311 1384
e 1311 1385
e 1311 1386
e 1311 1387
e 1311 1388
e 1311 1389
e 1311 1390
e 1311 1391
e 1311 1392
e 1311 1393
e 1311 1394
e 1311 1395
e 1311 1396
e 1311 1397
e 1311 1398
e 1311 1399
e 1311 1400
e 1311 1401
e 1311 1402
e 1311 1403
e 1404 1405
e 1404 1406
e 1404 1407
e 1404 1408
e 1404 1409
e 1404 1410
e 1404 1411
e 1404 1412
e 1404 1413
e 1404 1414
e 1404 1415
e 1404 1416
e 1404 1417
e 1404 1418
e 1404 1419
e 1404 1420
e 1404 1421
e 1404 1422
e 1404 1423
e 1404 1424
e 1404 1425
e 1404 1426
e 1404 1427
e 1404 1428
e 1404 1429
e 1404 1430
e 1404 1431
e 1404 1432
e 1404 1433
e 1404 1434
e 1404 1435
e 1404 1436
e 1404 1437
e 1438 1439
e 1438 1440
e 1438 1441
e 1438 1442
e 1438 1443
e 1438 1444
e 1438 1445
e 1438 1446
e 1438 1447
e 1438 1448
e 1438 1449
e 1438 1450
e 1438 1451
e 1438 1452
e 1438 1453
e 1438 1454
e 1438 1455
e 1438 1456
e 1438 1457
e 1438 1458
e 1438 1459
e 1438 1460
e 1438 1461
e 1438 1462
e 1438 1463
e 1438 1464
e 1438 1465
e 1438 1466
e 1438 1467
e 1438 1468
e 1438 1469
e 1438 1470
e 1438 1471
e 1438 1472
e 1438 1473
e 1438 1474
e 1438 1475
e 1438 1476
e 1438 1477
e 1438 1478
e 1438 1479
e 1438 1480
e 1438 1481
e 1438 1482
e 1438 1483
e 1438 1484
e 1438 1485
e 1438 1486
e 1438 1487
e 1438 1488
e 1438 1489
e 1490 1491
e 1490 1492
e 1490 1493
e 1490 1494
e 1490 1495
e 1490 1496
e 1490 1497
e 1490 1498
e 1490 1499
e 1490 1500
e 1490 1501
e 1490 1502
e 1490 1503
e 1490 1504
e 1490 1505
e 1490 1506
e 1490 1507
e 1490 1508
e 1490 1509
e 1490 1510
e 1490 1511
e 1490 1512
e 1490 1513
e 1490 1514
e 1490 1515
e 1490 1516
e 1490 1517
e 1490 1518
e 1490 1519
e 1490 1520
e 1490 1521
e 1490 1522
e 1490 1523
e 1490 1524
e 1490 1525
e 1490 1526
e 1490 1527
e 1490 1528
e 1490 1529
e 1490 1530
e 1490 1531
e 1490 1532
e 1490 1533
e 1490 1534
e 1490 1535
e 1490 1536
e 1490 1537
e 1490 1538
e 1490 1539
e 1490 1540
e 1490 1541
e 1490 1542
e 1490 1543
e 1490 1544
e 1490 1545
e 1490 1546
e 1490 1547
e 1490 1548
e 1490 1549
e 1490 1550
e 1490 1551
e 1490 1552
e 1490 1553
e 1490 1554
e 1490 1555
e 1490 1556
e 1490 1557
e 1490 1558
e 1490 1559
e 1490 1560
e 1490 1561
e 1490 1562
e 1490 1563
e 1490 1564
e 1490 1565
e 1490 1566
e 1490 1567
e 1490 1568
e 1490 1569
e 1490 1570
e 1490 1571
e 1490 1572
e 1490 1573
e 1574 1575
e 1574 1576
e 1574 1577
e 1574 1578
e 1574 1579
e 1574 1580
e 1574 1581
e 1574 1582
e 1574 1583
e 1574 1584
e 1574 1585
e 1574 1586
e 1574 1587
e 1574 1588
e 1574 1589
e 1574 1590
e 1574 1591
e 1574 1592
e 1574 1593
e 1574 1594
e 1574 1595
e 1574 1596
e 1574 1597
e 1574 1598
e 1574 1599
e 1574 1600
e 1574 1601
e 1574 1602
e 1574 1603
e 1574 1604
e 1574 1605
e 1574 1606
e 1574 1607
e 1574 1608
e 1574 1609
e 1574 1610
e 1574 1611
e 1574 1612
e 1574 1613
e 1574 1614
e 1574 1615
e 1574 1616
e 1574 1617
e 1574 1618
e 1574 1619
e 1574 1620
e 1574 1621
e 1574 1622
e 1574 1623
e 1574 1624
e 1574 1625
e 1574 1626
e 1574 1627
e 1574 1628
e 1574 1629
e 1574 1630
e 1574 1631
e 1574 1632
e 1574 1633
e 1574 1634
e 1574 1635
e 1574 1636
e 1637 1638
e 1637 1639
e 1637 1640
e 1637 1641
e 1637 1642
e 1637 1643
e 1637 1644
e 1637 1645
e 1637 1646
e 1637 1647
e 1637 1648
e 1637 1649
e 1637 1650
e 1637 1651
e 1637 1652
e 1637 1653
e 1637 1654
e 1637 1655
e 1637 1656
e 1637 1657
e 1637 1658
e 1637 1659
e 1637 1660
e 1637 1661
e 1637 1662
e 1637 1663
e 1637 1664
e 1637 1665
e 1637 1666
e 1637 1667
e 1637 1668
e 1637 1669
e 1637 1670
e 1637 1671
e 1637 1672
e 1637 1673
e 1637 1674
e 1637 1675
e 1637 1676
e 1637 1677
e 1637 1678
e 1637 1679
e 1637 1680
e 1637 1681
e 1637 1682
e 1637 1683
e 1637 1684
e 1637 1685
e 1637 1686
e 1637 1687
e 1637 1688
e 1637 1689
e 1637 1690
e 1637 1691
e 1637 1692
e 1637 1693
e 1637 1694
e 1637 1695
e 1637 1696
e 1637 1697
e 1637 1698
e 1637 1699
e 1637 1700
e 1701 1702
e 1701 1703
e 1701 1704
e 1701 1705
e 1701 1706
e 1701 1707
e 1701 1708
e 1701 1709
e 1701 1710
e 1701 1711
e 1701 1712
e 1701 1713
e 1701 1714
e 1701 1715
e 1701 1716
e 1701 1717
e 1701 1718
e 1701 1719
e 1701 1720
e 1701 1721
e 1701 1722
e 1701 1723
e 1701 1724
e 1701 1725
e 1701 1726
e 1701 1727
e 1701 1728
e 1701 1729
e 1701 1730
e 1701 1731
e 1701 1732
e 1701 1733
e 1701 1734
e 1701 1735
e 1701 1736
e 1701 1737
e 1701 1738
e 1701 1739
e 1701 1740
e 1701 1741
e 1701 1742
e 1701 1743
e 1701 1744
e 1701 1745
e 1701 1746
e 1701 1747
e 1701 1748
e 1701 1749
e 1701 1750
e 1701 1751
e 1701 1752
e 1701 1753
e 1701 1754
e 1701 1755
e 1701 1756
e 1701 1757
e 1701 1758
e 1701 1759
e 1701 1760
e 1701 1761
e 1701 1762
e 1701 1763
e 1701 1764
e 1701 1765
e 1701 1766
e 1701 1767
e 1701 1768
e 1701 1769
e 1701 1770
e 1701 1771
e 1701 1772
e 1701 1773
e 1701 1774
e 1701 1775
e 1701 1776
e 1701 1777
e 1701 1778
e 1701 1779
e 1701 1780
e 1701 1781
e 1701 1782
e 1701 1783
e 1701 1784
e 1701 1785
e 1701 1786
e 1701 1787
e 1701 1788
e 1701 1789
e 1701 1790
e 1701 1791
e 1701 1792
e 1701 1793
e 1701 1794
e 1701 1795
e 1701 1796
e 1701 1797
e 1701 1798
e 1701 1799
e 1701 1800
e 1801 1802
e 1801 1803
e 1801 1804
e 1801 1805
e 1801 1806
e 1801 1807
e 1801 1808
e 1801 1809
e 1801 1810
e 1801 1811
e 1801 1812
e 1801 1813
e 1801 1814
e 1801 1815
e 1801 1816
e 1801 1817
e 1801 1818
e 1801 1819
e 1801 1820
e 1801 1821
e 1801 1822
e 1801 1823
e 1801 1824
e 1825 1826
e 1825 1827
e 1825 1828
e 1825 1829
e 1825 1830
e 1825 1831
e 1825 1832
e 1825 1833
e 1825 1834
e 1825 1835
e 1825 1836
e 1825 1837
e 1825 1838
e 1825 1839
e 1825 1840
e 1825 1841
e 1825 1842
e 1825 1843
e 1825 1844
e 1825 1845
e 1825 1846
e 1825 1847
e 1825 1848
e 1825 1849
e 1825 1850
e 1825 1851
e 1825 1852
e 1825 1853
e 1825 1854
e 1825 1855
e 1825 1856
e 1825 1857
e 1825 1858
e 1825 1859
e 1825 1860
e 1825 1861
e 1825 1862
e 1825 1863
e 1825 1864
e 1825 1865
e 1825 1866
e 1825 1867
e 1825 1868
e 1825 1869
e 1825 1870
e 1825 1871
e 1825 1872
e 1825 1873
e 1825 1874
e 1825 1875
e 1825 1876
e 1825 1877
e 1825 1878
e 1825 1879
e 1825 1880
e 1825 1881
e 1825 1882
e 1825 1883
e 1825 1884
e 1825 1885
e 1825 1886
e 1825 1887
e 1825 1888
e 1825 1889
e 1825 1890
e 1825 1891
e 1825 1892
e 1825 1893
e 1825 1894
e 1825 1895
e 1825 1896
e 1825 1897
e 1825 1898
e 1825 1899
e 1825 1900
e 1825 1901
e 1825 1902
e 1825 1903
e 1825 1904
e 1825 1905
e 1825 1906
e 1825 1907
e 1825 1908
e 1825 1909
e 1825 1910
e 1825 1911
e 1825 1912
e 1825 1913
e 1825 1914
e 1825 1915
e 1825 1916
e 1825 1917
e 1825 1918
e 1825 1919
e 1825 1920
e 1825 1921
e 1825 1922
e 1825 1923
e 1825 1924
e 1825 1925
e 1926 1927
e 1926 1928
e 1926 1929
e 1926 1930
e 1926 1931
e 1926 1932
e 1926 1933
e 1926 1934
e 1926 1935
e 1926 1936
e 1926 1937
e 1926 1938
e 1926 1939
e 1926 1940
e 1926 1941
e 1926 1942
e 1926 1943
e 1926 1944
e 1926 1945
e 1926 1946
e 1926 1947
e 1948 1949
e 1948 1950
e 1948 1951
e 1948 1952
e 1948 1953
e 1948 1954
e 1948 1955
e 1948 1956
e 1948 1957
e 1948 1958
e 1948 1959
e 1948 1960
e 1948 1961
e 1948 1962
e 1948 1963
e 1948 1964
e 1948 1965
e 1948 1966
e 1948 1967
e 1948 1968
e 1948 1969
e 1948 1970
e 1948 1971
e 1948 1972
e 1948 1973
e 1948 1974
e 1948 1975
e 1948 1976
e 1948 1977
e 1948 1978
e 1948 1979
e 1948 1980
e 1948 1981
e 1948 1982
e 1948 1983
e 1948 1984
e 1948 1985
e 1948 1986
e 1948 1987
e 1948 1988
e 1948 1989
e 1948 1990
e 1948 1991
e 1948 1992
e 1948 1993
e 1948 1994
e 1948 1995
e 1948 1996
e 1948 1997
e 1948 1998
e 1948 1999
e 1948 2000
e 1948 2001
e 1948 2002
e 1948 2003
e 1948 2004
e 1948 2005
e 1948 2006
e 1948 2007
e 1948 2008
e 1948 2009
e 1948 2010
e 1948 2011
e 1948 2012
e 1948 2013
e 1948 2014
e 1948 2015
e 1948 2016
e 1948 2017
e 1948 2018
e 1948 2019
e 1948 2020
e 1948 2021
e 1948 2022
e 1948 2023
e 1948 2024
e 1948 2025
e 1948 2026
e 1948 2027
e 1948 2028
e 1948 2029
e 1948 2030
e 1948 2031
e 1948 2032
e 1948 2033
e 1948 2034
e 1948 2035
e 1948 2036
e 1948 2037
e 1948 2038
e 1948 2039
e 1948 2040
e 1948 2041
e 1948 2042
e 1948 2043
e 1948 2044
e 2045 2046
e 2045 2047
e 2045 2048
e 2045 2049
e 2045 2050
e 2045 2051
e 2045 2052
e 2045 2053
e 2045 2054
e 2045 2055
e 2045 2056
e 2045 2057
e 2045 2058
e 2045 2059
e 2045 2060
e 2045 2061
e 2045 2062
e 2045 2063
e 2045 2064
e 2045 2065
e 2045 2066
e 2045 2067
e 2045 2068
e 2045 2069
e 2045 2070
e 2045 2071
e 2045 2072
e 2045 2073
e 2045 2074
e 2045 2075
e 2045 2076
e 2045 2077
e 2045 2078
e 2045 2079
e 2045 2080
e 2045 2081
e 2045 2082
e 2045 2083
e 2045 2084
e 2045 2085
e 2045 2086
e 2045 2087
e 2045 2088
e 2045 2089
e 2045 2090
e 2045 2091
e 2045 2092
e 2045 2093
e 2045 2094
e 2045 2095
e 2045 2096
e 2045 2097
e 2045 2098
e 2045 2099
e 2045 2100
e 2045 2101
e 2045 2102
e 2045 2103
e 2045 2104
e 2045 2105
e 2045 2106
e 2045 2107
e 2045 2108
e 2045 2109
e 2045 2110
e 2045 2111
e 2045 2112
e 2045 2113
e 2045 2114
e 2045 2115
e 2045 2116
e 2045 2117
e 2045 2118
e 2045 2119
e 2045 2120
e 2045 2121
e 2045 2122
e 2045 2123
e 2045 2124
e 2045 2125
e 2045 2126
e 2045 2127
e 2045 2128
e 2045 2129
e 2045 2130
e 2045 2131
e 2045 2132
e 2045 2133
e 2045 2134
e 2045 2135
e 2045 2136
e 2045 2137
e 2138 2139
e 2138 2140
e 2138 2141
e 2138 2142
e 2138 2143
e 2138 2144
e 2138 2145
e 2138 2146
e 2138 2147
e 2138 2148
e 2138 2149
e 2138 2150
e 2138 2151
e 2138 2152
e 2138 2153
e 2138 2154
e 2138 2155
e 2138 2156
e 2138 2157
e 2138 2158
e 2138 2159
e 2138 2160
e 2138 2161
e 2138 2162
e 2138 2163
e 2138 2164
e 2138 2165
e 2138 2166
e 2138 2167
e 2138 2168
e 2138 2169
e 2138 2170
e 2138 2171
e 2138 2172
e 2138 2173
e 2138 2174
e 2138 2175
e 2138 2176
e 2138 2177
e 2178 2179
e 2178 2180
e 2178 2181
e 2178 2182
e 2178 2183
e 2178 2184
e 2178 2185
e 2178 2186
e 2178 2187
e 2178 2188
e 2178 2189
e 2178 2190
e 2178 2191
e 2178 2192
e 2178 2193
e 2178 2194
e 2178 2195
e 2178 2196
e 2178 2197
e 2178 2198
e 2178 2199
e 2178 2200
e 2178 2201
e 2178 2202
e 2178 2203
e 2178 2204
e 2178 2205
e 2178 2206
e 2178 2207
e 2178 2208
e 2178 2209
e 2178 2210
e 2178 2211
e 2178 2212
e 2178 2213
e 2178 2214
e 2178 2215
e 2178 2216
e 2178 2217
e 2178 2218
e 2178 2219
e 2178 2220
e 2178 2221
e 2178 2222
e 2178 2223
e 2178 2224
e 2178 2225
e 2178 2226
e 2178 2227
e 2178 2228
e 2178 2229
e 2178 2230
e 2178 2231
e 2178 2232
e 2178 2233
e 2178 2234
e 2178 2235
e 2178 2236
e 2178 2237
e 2178 2238
e 2178 2239
e 2178 2240
e 2178 2241
e 2178 2242
e 2178 2243
e 2178 2244
e 2178 2245
e 2178 2246
e 2178 2247
e 2178 2248
e 2178 2249
e 2178 2250
e 2178 2251
e 2178 2252
e 2178 2253
e 2178 2254
e 2178 2255
e 2178 2256
e 2178 2257
e 2178 2258
e 2178 2259
e 2178 2260
e 2178 2261
e 2178 2262
e 2178 2263
e 2178 2264
e 2178 2265
e 2266 2267
e 2266 2268
e 2266 2269
e 2266 2270
e 2266 2271
e 2266 2272
e 2266 2273
e 2266 2274
e 2266 2275
e 2266 2276
e 2266 2277
e 2266 2278
e 2266 2279
e 2266 2280
e 2266 2281
e 2266 2282
e 2266 2283
e 2266 2284
e 2266 2285
e 2266 2286
e 2266 2287
e 2266 2288
e 2266 2289
e 2266 2290
e 2291 2292
e 2291 2293
e 2291 2294
e 2291 2295
e 2291 2296
e 2291 2297
e 2291 2298
e 2291 2299
e 2291 2300
e 2291 2301
e 2291 2302
e 2291 2303
e 2291 2304
e 2291 2305
e 2291 2306
e 2291 2307
e 2291 2308
e 2291 2309
e 2291 2310
e 2291 2311
e 2291 2312
e 2291 2313
e 2291 2314
e 2291 2315
e 2291 2316
e 2291 2317
e 2291 2318
e 2291 2319
e 2291 2320
e 2291 2321
e 2291 2322
e 2291 2323
e 2291 2324
e 2291 2325
e 2291 2326
e 2291 2327
e 2291 2328
e 2291 2329
e 2291 2330
e 2291 2331
e 2291 2332
e 2291 2333
e 2291 2334
e 2291 2335
e 2291 2336
e 2291 2337
e 2291 2338
e 2291 2339
e 2291 2340
e 2291 2341
e 2291 2342
e 2291 2343
e 2344 2345
e 2344 2346
e 2344 2347
e 2344 2348
e 2344 2349
e 2344 2350
e 2344 2351
e 2344 2352
e 2344 2353
e 2344 2354
e 2344 2355
e 2344 2356
e 2344 2357
e 2344 2358
e 2344 2359
e 2344 2360
e 2344 2361
e 2344 2362
e 2344 2363
e 2344 2364
e 2344 2365
e 2344 2366
e 2344 2367
e 2344 2368
e 2344 2369
e 2344 2370
e 2344 2371
e 2344 2372
e 2344 2373
e 2344 2374
e 2344 2375
e 2344 2376
e 2344 2377
e 2344 2378
e 2344 2379
e 2344 2380
e 2344 2381
e 2344 2382
e 2344 2383
e 2344 2384
e 2344 2385
e 2344 2386
e 2344 2387
e 2344 2388
e 2344 2389
e 2344 2390
e 2344 2391
e 2344 2392
e 2344 2393
e 2344 2394
e 2344 2395
e 2344 2396
e 2344 2397
e 2344 2398
e 2344 2399
e 2344 2400
e 2344 2401
e 2344 2402
e 2344 2403
e 2344 2404
e 2344 2405
e 2344 2406
e 2344 2407
e 2344 2408
e 2344 2409
e 2344 2410
e 2344 2411
e 2344 2412
e 2344 2413
e 2344 2414
e 2344 2415
e 2344 2416
e 2344 2417
e 2344 2418
e 2344 2419
e 2344 2420
e 2344 2421
e 2422 2423
e 2422 2424
e 2422 2425
e 2422 2426
e 2422 2427
e 2422 2428
e 2422 2429
e 2422 2430
e 2422 2431
e 2422 2432
e 2422 2433
e 2422 2434
e 2422 2435
e 2422 2436
e 2422 2437
e 2422 2438
e 2422 2439
e 2422 2440
e 2422 2441
e 2422 2442
e 2422 2443
e 2422 2444
e 2422 2445
e 2422 2446
e 2422 2447
e 2422 2448
e 2422 2449
e 2422 2450
e 2422 2451
e 2422 2452
e 2422 2453
e 2422 2454
e 2422 2455
e 2422 2456
e 2422 2457
e 2422 2458
e 2422 2459
e 2422 2460
e 2422 2461
e 2422 2462
e 2422 2463
e 2422 2464
e 2422 2465
e 2422 2466
e 2422 2467
e 2422 2468
e 2422 2469
e 2422 2470
e 2422 2471
e 2422 2472
e 2422 2473
e 2422 2474
e 2422 2475
e 2422 2476
e 2422 2477
e 2422 2478
e 2422 2479
e 2480 2481
e 2480 2482
e 2480 2483
e 2480 2484
e 2480 2485
e 2480 2486
e 2480 2487
e 2480 2488
e 2480 2489
e 2480 2490
e 2480 2491
e 2480 2492
e 2480 2493
e 2480 2494
e 2480 2495
e 2480 2496
e 2480 2497
e 2498 2499
e 2498 2500
e 2498 2501
e 2498 2502
e 2498 2503
e 2498 2504
e 2498 2505
e 2498 2506
e 2498 2507
e 2498 2508
e 2498 2509
e 2498 2510
e 2498 2511
e 2498 2512
e 2498 2513
e 2498 2514
e 2498 2515
e 2498 2516
e 2498 2517
e 2498 2518
e 2498 2519
e 2498 2520
e 2498 2521
e 2498 2522
e 2498 2523
e 2498 2524
e 2498 2525
e 2498 2526
e 2498 2527
e 2498 2528
e 2498 2529
e 2498 2530
e 2498 2531
e 2498 2532
e 2498 2533
e 2498 2534
e 2498 2535
e 2498 2536
e 2498 2537
e 2498 2538
e 2498 2539
e 2498 2540
e 2498 2541
e 2498 2542
e 2498 2543
e 2498 2544
e 2498 2545
e 2498 2546
e 2498 2547
e 2498 2548
e 2498 2549
e 2498 2550
e 2498 2551
e 2498 2552
e 2498 2553
e 2498 2554
e 2498 2555
e 2498 2556
e 2498 2557
e 2498 2558
e 2498 2559
e 2498 2560
e 2498 2561
e 2498 2562
e 2498 2563
e 2498 2564
e 2498 2565
e 2498 2566
e 2498 2567
e 2498 2568
e 2569 2570
e 2569 2571
e 2569 2572
e 2569 2573
e 2569 2574
e 2569 2575
e 2569 2576
e 2569 2577
e 2569 2578
e 2569 2579
e 2569 2580
e 2569 2581
e 2569 2582
e 2569 2583
e 2569 2584
e 2569 2585
e 2569 2586
e 2587 2588
e 2587 2589
e 2587 2590
e 2587 2591
e 2587 2592
e 2587 2593
e 2587 2594
e 2587 2595
e 2587 2596
e 2587 2597
e 2587 2598
e 2587 2599
e 2587 2600
e 2587 2601
e 2587 2602
e 2587 2603
e 2587 2604
e 2587 2605
e 2587 2606
e 2587 2607
e 2587 2608
e 2587 2609
e 2587 2610
e 2611 2612
e 2611 2613
e 2611 2614
e 2611 2615
e 2611 2616
e 2611 2617
e 2611 2618
e 2611 2619
e 2611 2620
e 2611 2621
e 2611 2622
e 2611 2623
e 2611 2624
e 2611 2625
e 2611 2626
e 2611 2627
e 2611 2628
e 2611 2629
e 2611 2630
e 2611 2631
e 2611 2632
e 2611 2633
e 2611 2634
e 2611 2635
e 2611 2636
e 2611 2637
e 2611 2638
e 2611 2639
e 2611 2640
e 2611 2641
e 2611 2642
e 2611 2643
e 2611 2644
e 2611 2645
e 2611 2646
e 2611 2647
e 2611 2648
e 2611 2649
e 2611 2650
e 2611 2651
e 2611 2652
e 2611 2653
e 2611 2654
e 2611 2655
e 2611 2656
e 2611 2657
e 2611 2658
e 2611 2659
e 2611 2660
e 2611 2661
e 2611 2662
e 2611 2663
e 2611 2664
e 2611 2665
e 2611 2666
e 2611 2667
e 2611 2668
e 2611 2669
e 2611 2670
e 2611 2671
e 2611 2672
e 2611 2673
e 2611 2674
e 2611 2675
e 2611 2676
e 2611 2677
e 2611 2678
e 2611 2679
e 2611 2680
e 2611 2681
e 2611 2682
e 2611 2683
e 2611 2684
e 2611 2685
e 2611 2686
e 2687 2688
e 2687 2689
e 2687 2690
e 2687 2691
e 2687 2692
e 2687 2693
e 2687 2694
e 2687 2695
e 2687 2696
e 2687 2697
e 2698 2699
e 2698 2700
e 2698 2701
e 2698 2702
e 2698 2703
e 2698 2704
e 2698 2705
e 2698 2706
e 2698 2707
e 2698 2708
e 2698 2709
e 2698 2710
e 2698 2711
e 2698 2712
e 2698 2713
e 2698 2714
e 2698 2715
e 2698 2716
e 2698 2717
e 2698 2718
e 2698 2719
e 2698 2720
e 2698 2721
e 2698 2722
e 2698 2723
e 2698 2724
e 2698 2725
e 2698 2726
e 2698 2727
e 2698 2728
e 2698 2729
e 2698 2730
e 2698 2731
e 2698 2732
e 2698 2733
e 2698 2734
e 2698 2735
e 2698 2736
e 2698 2737
e 2698 2738
e 2698 2739
e 2698 2740
e 2698 2741
e 2698 2742
e 2698 2743
e 2698 2744
e 2698 2745
e 2698 2746
e 2698 2747
e 2698 2748
e 2698 2749
e 2698 2750
e 2698 2751
e 2698 2752
e 2698 2753
e 2698 2754
e 2698 2755
e 2698 2756
e 2757 2758
e 2757 2759
e 2757 2760
e 2757 2761
e 2757 2762
e 2757 2763
e 2757 2764
e 2757 2765
e 2757 2766
e 2757 2767
e 2757 2768
e 2757 2769
e 2757 2770
e 2757 2771
e 2757 2772
e 2757 2773
e 2757 2774
e 2757 2775
e 2757 2776
e 2757 2777
e 2757 2778
e 2757 2779
e 2757 2780
e 2757 2781
e 2757 2782
e 2757 2783
e 2757 2784
e 2757 2785
e 2757 2786
e 2757 2787
e 2757 2788
e 2757 2789
e 2757 2790
e 2757 2791
e 2757 2792
e 2757 2793
e 2757 2794
e 2757 2795
e 2757 2796
e 2757 2797
e 2757 2798
e 2757 2799
e 2757 2800
e 2757 2801
e 2757 2802
e 2757 2803
e 2757 2804
e 2757 2805
e 2757 2806
e 2757 2807
e 2757 2808
e 2757 2809
e 2757 2810
e 2757 2811
e 2757 2812
e 2757 2813
e 2757 2814
e 2757 2815
e 2757 2816
e 2757 2817
e 2757 2818
e 2757 2819
e 2757 2820
e 2757 2821
e 2757 2822
e 2757 2823
e 2757 2824
e 2757 2825
e 2757 2826
e 2757 2827
e 2828 2829
e 2828 2830
e 2828 2831
e 2828 2832
e 2828 2833
e 2828 2834
e 2828 2835
e 2828 2836
e 2828 2837
e 2828 2838
e 2828 2839
e 2828 2840
e 2828 2841
e 2828 2842
e 2828 2843
e 2828 2844
e 2828 2845
e 2828 2846
e 2828 2847
e 2828 2848
e 2828 2849
e 2828 2850
e 2828 2851
e 2828 2852
e 2828 2853
e 2828 2854
e 2828 2855
e 2828 2856
e 2828 2857
e 2828 2858
e 2828 2859
e 2828 2860
e 2828 2861
e 2828 2862
e 2828 2863
e 2828 2864
e 2828 2865
e 2828 2866
e 2828 2867
e 2828 2868
e 2828 2869
e 2828 2870
e 2828 2871
e 2828 2872
e 2828 2873
e 2828 2874
e 2828 2875
e 2828 2876
e 2828 2877
e 2828 2878
e 2828 2879
e 2828 2880
e 2828 2881
e 2828 2882
e 2828 2883
e 2884 2885
e 2884 2886
e 2884 2887
e 2884 2888
e 2884 2889
e 2884 2890
e 2884 2891
e 2884 2892
e 2884 2893
e 2884 2894
e 2884 2895
e 2884 2896
e 2884 2897
e 2884 2898
e 2884 2899
e 2884 2900
e 2884 2901
e 2884 2902
e 2884 2903
e 2884 2904
e 2884 2905
e 2884 2906
e 2884 2907
e 2884 2908
e 2884 2909
e 2884 2910
e 2884 2911
e 2884 2912
e 2884 2913
e 2884 2914
e 2884 2915
e 2884 2916
e 2884 2917
e 2884 2918
e 2884 2919
e 2884 2920
e 2884 2921
e 2884 2922
e 2884 2923
e 2884 2924
e 2884 2925
e 2884 2926
e 2884 2927
e 2884 2928
e 2884 2929
e 2884 2930
e 2884 2931
e 2884 2932
e 2884 2933
e 2884 2934
e 2884 2935
e 2884 2936
e 2884 2937
e 2884 2938
e 2884 2939
e 2884 2940
e 2884 2941
e 2884 2942
e 2884 2943
e 2884 2944
e 2884 2945
e 2884 2946
e 2884 2947
e 2884 2948
e 2949 2950
e 2949 2951
e 2949 2952
e 2949 2953
e 2949 2954
e 2949 2955
e 2949 2956
e 2949 2957
e 2949 2958
e 2949 2959
e 2949 2960
e 2949 2961
e 2949 2962
e 2949 2963
e 2949 2964
e 2949 2965
e 2949 2966
e 2949 2967
e 2949 2968
e 2949 2969
e 2949 2970
e 2949 2971
e 2949 2972
e 2949 2973
e 2949 2974
e 2949 2975
e 2949 2976
e 2949 2977
e 2949 2978
e 2949 2979
e 2949 2980
e 2949 2981
e 2949 2982
e 2949 2983
e 2949 2984
e 2949 2985
e 2949 2986
e 2949 2987
e 2949 2988
e 2949 2989
e 2949 2990
e 2949 2991
e 2949 2992
e 2949 2993
e 2949 2994
e 2949 2995
e 2949 2996
e 2949 2997
e 2949 2998
e 2949 2999
e 2949 3000
e 2949 3001
e 2949 3002
e 2949 3003
e 2949 3004
e 2949 3005
e 2949 3006
e 2949 3007
e 2949 3008
e 2949 3009
e 2949 3010
e 2949 3011
e 2949 3012
e 2949 3013
e 2949 3014
e 2949 3015
e 2949 3016
e 2949 3017
e 2949 3018
e 2949 3019
e 2949 3020
e 2949 3021
e 2949 3022
e 2949 3023
e 3024 3025
e 3024 3026
e 3024 3027
e 3024 3028
e 3024 3029
e 3024 3030
e 3024 3031
e 3024 3032
e 3024 3033
e 3024 3034
e 3024 3035
e 3024 3036
e 3024 3037
e 3024 3038
e 3024 3039
e 3024 3040
e 3024 3041
e 3024 3042
e 3024 3043
e 3024 3044
e 3024 3045
e 3024 3046
e 3024 3047
e 3024 3048
e 3024 3049
e 3024 3050
e 3024 3051
e 3024 3052
e 3024 3053
e 3024 3054
e 3024 3055
e 3024 3056
e 3024 3057
e 3024 3058
e 3024 3059
e 3024 3060
e 3024 3061
e 3024 3062
e 3024 3063
e 3024 3064
e 3024 3065
e 3024 3066
e 3024 3067
e 3024 3068
e 3024 3069
e 3024 3070
e 3024 3071
e 3024 3072
e 3024 3073
e 3024 3074
e 3024 3075
e 3024 3076
e 3024 3077
e 3024 3078
e 3024 3079
e 3024 3080
e 3024 3081
e 3024 3082
e 3024 3083
e 3024 3084
e 3024 3085
e 3024 3086
e 3087 3088
e 3087 3089
e 3087 3090
e 3087 3091
e 3087 3092
e 3087 3093
e 3087 3094
e 3087 3095
e 3087 3096
e 3087 3097
e 3087 3098
e 3087 3099
e 3087 3100
e 3087 3101
e 3087 3102
e 3087 3103
e 3087 3104
e 3087 3105
e 3087 3106
e 3087 3107
e 3087 3108
e 3087 3109
e 3087 3110
e 3087 3111
e 3087 3112
e 3087 3113
e 3087 3114
e 3087 3115
e 3087 3116
e 3087 3117
e 3087 3118
e 3087 3119
e 3087 3120
e 3087 3121
e 3087 3122
e 3087 3123
e 3087 3124
e 3087 3125
e 3087 3126
e 3087 3127
e 3087 3128
e 3087 3129
e 3087 3130
e 3087 3131
e 3087 3132
e 3087 3133
e 3087 3134
e 3087 3135
e 3087 3136
e 3087 3137
e 3087 3138
e 3087 3139
e 3087 3140
e 3087 3141
e 3087 3142
e 3087 3143
e 3087 3144
e 3087 3145
e 3087 3146
e 3087 3147
e 3087 3148
e 3087 3149
e 3087 3150
e 3087 3151
e 3087 3152
e 3087 3153
e 3087 3154
e 3087 3155
e 3087 3156
e 3087 3157
e 3087 3158
e 3087 3159
e 3087 3160
e 3087 3161
e 3087 3162
e 3087 3163
e 3087 3164
e 3087 3165
e 3087 3166
e 3087 3167
e 3087 3168
e 3087 3169
e 3087 3170
e 3087 3171
e 3087 3172
e 3087 3173
e 3087 3174
e 3087 3175
e 3087 3176
e 3087 3177
e 3087 3178
e 3087 3179
e 3180 3181
e 3180 3182
e 3180 3183
e 3180 3184
e 3180 3185
e 3180 3186
e 3180 3187
e 3180 3188
e 3180 3189
e 3180 3190
e 3180 3191
e 3180 3192
e 3180 3193
e 3180 3194
e 3180 3195
e 3180 3196
e 3180 3197
e 3180 3198
e 3180 3199
e 3180 3200
e 3180 3201
e 3180 3202
e 3180 3203
e 3180 3204
e 3180 3205
e 3180 3206
e 3180 3207
e 3180 3208
e 3180 3209
e 3180 3210
e 3180 3211
e 3180 3212
e 3180 3213
e 3180 3214
e 3180 3215
e 3180 3216
e 3180 3217
e 3180 3218
e 3180 3219
e 3180 3220
e 3180 3221
e 3180 3222
e 3180 3223
e 3180 3224
e 3180 3225
e 3180 3226
e 3180 3227
e 3180 3228
e 3180 3229
e 3180 3230
e 3180 3231
e 3180 3232
e 3180 3233
e 3180 3234
e 3180 3235
e 3180 3236
e 3180 3237
e 3180 3238
e 3180 3239
e 3180 3240
e 3180 3241
e 3180 3242
e 3180 3243
e 3180 3244
e 3180 3245
e 3180 3246
e 3180 3247
e 3180 3248
e 3180 3249
e 3180 3250
e 3180 3251
e 3180 3252
e 3180 3253
e 3180 3254
e 3180 3255
e 3180 3256
e 3180 3257
